(set-logic HORN)
(set-info :source |
    Benchmark: C_VC
    Output by Princess (http://www.philipp.ruemmer.org/princess.shtml)
|)
(set-info :status sat)
(declare-heap Heap Addr HeapObject
 defObj
 ((HeapObject 0) (node 0)) (
  (
   (O_Int (getInt Int))
   (O_UInt (getUInt Int))
   (O_Addr (getAddr Addr))
   (O_node (getnode node))
   (defObj)
  )
  (
   (node (next Addr) (data Int))
  )
))
(declare-fun inv_main12 (Heap Int Int Int Int Int Addr) Bool)
(declare-fun inv_main15 (Heap Int Int Int Int Int Addr Int) Bool)
(declare-fun inv_main18 (Heap Int Int Int Int Int Addr) Bool)
(declare-fun inv_main21 (Heap Int Int Int Int Addr Addr) Bool)
(declare-fun inv_main22 (Heap Int Int Int Int Addr Addr) Bool)
(declare-fun inv_main28 (Heap Int Int Int Int Addr Addr Int Addr) Bool)
(declare-fun inv_main31 (Heap Int Int Int Int Addr Addr Int Addr Int) Bool)
(declare-fun inv_main34 (Heap Int Int Int Int Addr Addr Int Addr) Bool)
(declare-fun inv_main36 (Heap Int Int Int Int Addr Addr Addr) Bool)
(declare-fun inv_main4 (Heap Int Int) Bool)
(declare-fun inv_main43 (Heap Int Int Addr Int) Bool)
(declare-fun inv_main50 (Heap Int Int Addr Int Int Addr Int Int) Bool)
(declare-fun inv_main51 (Heap Int Int Addr Int Int Addr Int Int) Bool)
(declare-fun inv_main55 (Heap Int Int Addr Int) Bool)
(declare-fun inv_main64 (Heap Int Int Addr Int Int Int Addr Int) Bool)
(declare-fun inv_main65 (Heap Int Int Addr Int Int Int Addr Int) Bool)
(declare-fun inv_main72 (Heap Int Int Addr Int Addr) Bool)
(declare-fun inv_main76 (Heap Int Int Addr Int Addr Addr) Bool)
(declare-fun inv_main79 (Heap Int Int Addr Int) Bool)
(assert (forall ((var0 Int) (var1 Int) (var2 Heap)) (or (not (and (and (= var2 emptyHeap) (= var1 2)) (= var0 1))) (inv_main4 var2 var1 var0))))
(assert (forall ((var0 Int) (var1 Addr) (var2 Addr) (var3 Int) (var4 Int) (var5 Int) (var6 Addr) (var7 Int) (var8 Int) (var9 Heap) (var10 Int) (var11 Int) (var12 Addr) (var13 Int) (var14 Int) (var15 Int) (var16 Addr) (var17 Int) (var18 Int) (var19 Heap)) (or (not (and (inv_main65 var19 var18 var17 var16 var15 var14 var13 var12 var11) (and (and (<= 0 (+ (+ var10 (- 1)) (- 1))) (and (is-O_node (read var19 var12)) (and (and (and (and (and (and (and (and (and (= var9 var19) (= var8 var18)) (= var7 var17)) (= var6 var16)) (= var5 var15)) (= var4 var14)) (= var3 var13)) (= var2 var12)) (= var10 var11)) (= var1 (next (getnode (read var19 var12))))))) (= var0 (+ var10 (- 1)))))) (inv_main65 var9 var8 var7 var6 var5 var4 var3 var1 var0))))
(assert (forall ((var0 Int) (var1 Int) (var2 Int) (var3 Addr) (var4 Int) (var5 Int) (var6 Heap)) (or (not (and (inv_main55 var6 var5 var4 var3 var2) (and (and (and (<= 0 (+ var2 (- 1))) (<= 0 (+ (+ var5 (* (- 1) var2)) (- 1)))) (= var1 (+ var2 var5))) (= var0 (+ var2 var5))))) (inv_main65 var6 var5 var4 var3 var2 var1 var0 var3 var2))))
(assert (forall ((var0 Int) (var1 Int) (var2 Addr) (var3 Int) (var4 Int) (var5 Heap) (var6 Int) (var7 Int) (var8 Int) (var9 Addr) (var10 Int) (var11 Int) (var12 Int) (var13 Addr) (var14 Int) (var15 Int) (var16 Heap)) (or (not (and (inv_main64 var16 var15 var14 var13 var12 var11 var10 var9 var8) (and (and (not (= var7 var6)) (is-O_node (read var16 var9))) (and (and (and (and (and (and (and (= var5 var16) (= var4 var15)) (= var3 var14)) (= var2 var13)) (= var1 var12)) (= var0 var11)) (= var7 var10)) (= var6 (data (getnode (read var16 var9)))))))) (inv_main79 var5 var4 var3 var2 var1))))
(assert (forall ((var0 Int) (var1 Addr) (var2 Addr) (var3 Int) (var4 Int) (var5 Int) (var6 Addr) (var7 Int) (var8 Int) (var9 Heap) (var10 Int) (var11 Int) (var12 Addr) (var13 Int) (var14 Int) (var15 Int) (var16 Addr) (var17 Int) (var18 Int) (var19 Heap)) (or (not (and (inv_main65 var19 var18 var17 var16 var15 var14 var13 var12 var11) (and (and (not (<= 0 (+ (+ var10 (- 1)) (- 1)))) (and (is-O_node (read var19 var12)) (and (and (and (and (and (and (and (and (and (= var9 var19) (= var8 var18)) (= var7 var17)) (= var6 var16)) (= var5 var15)) (= var4 var14)) (= var3 var13)) (= var2 var12)) (= var10 var11)) (= var1 (next (getnode (read var19 var12))))))) (= var0 (+ var10 (- 1)))))) (inv_main64 var9 var8 var7 var6 var5 var4 var3 var1 var0))))
(assert (forall ((var0 Int) (var1 Int) (var2 Int) (var3 Addr) (var4 Int) (var5 Int) (var6 Heap)) (or (not (and (inv_main55 var6 var5 var4 var3 var2) (and (and (and (not (<= 0 (+ var2 (- 1)))) (<= 0 (+ (+ var5 (* (- 1) var2)) (- 1)))) (= var1 (+ var2 var5))) (= var0 (+ var2 var5))))) (inv_main64 var6 var5 var4 var3 var2 var1 var0 var3 var2))))
(assert (forall ((var0 Int) (var1 Int) (var2 Int) (var3 Addr) (var4 Int) (var5 Int) (var6 Addr) (var7 Int) (var8 Int) (var9 Heap) (var10 Int) (var11 Int) (var12 Addr) (var13 Int) (var14 Int) (var15 Addr) (var16 Int) (var17 Int) (var18 Heap)) (or (not (and (inv_main50 var18 var17 var16 var15 var14 var13 var12 var11 var10) (and (and (and (is-O_node (read var18 var12)) (is-O_node (read var18 var12))) (and (and (and (and (and (and (and (and (= var9 (write var18 var12 (O_node (node (next (getnode (read var18 var12))) var11)))) (= var8 var17)) (= var7 var16)) (= var6 var15)) (= var5 var14)) (= var4 var13)) (= var3 var12)) (= var2 var11)) (= var1 var10))) (= var0 (+ var5 1))))) (inv_main43 var9 var8 var7 var6 var0))))
(assert (forall ((var0 Int) (var1 Addr) (var2 Addr) (var3 Int) (var4 Int) (var5 Int) (var6 Int) (var7 Heap) (var8 Addr) (var9 Addr) (var10 Int) (var11 Int) (var12 Int) (var13 Int) (var14 Heap)) (or (not (and (inv_main22 var14 var13 var12 var11 var10 var9 var8) (and (and (and (is-O_node (read var14 var8)) (is-O_node (read var14 var8))) (and (and (and (and (and (and (= var7 (write var14 var8 (O_node (node var9 (data (getnode (read var14 var8))))))) (= var6 var13)) (= var5 var12)) (= var4 var11)) (= var3 var10)) (= var2 var9)) (= var1 var8))) (= var0 0)))) (inv_main43 var7 var6 var5 var2 var0))))
(assert (forall ((var0 Heap) (var1 Addr) (var2 Int) (var3 Int) (var4 Int) (var5 Int) (var6 Int) (var7 Heap)) (or (not (and (inv_main12 var7 var6 var5 var4 var3 var2 var1) (and (and (is-O_node (read var7 var1)) (is-O_node (read var7 var1))) (= var0 (write var7 var1 (O_node (node nullAddr (data (getnode (read var7 var1)))))))))) (inv_main18 var0 var6 var5 var4 var3 var2 var1))))
(assert (forall ((var0 Int) (var1 Addr) (var2 Int) (var3 Addr) (var4 Int) (var5 Int) (var6 Addr) (var7 Int) (var8 Int) (var9 Heap) (var10 Int) (var11 Int) (var12 Int) (var13 Addr) (var14 Int) (var15 Int) (var16 Addr) (var17 Int) (var18 Int) (var19 Heap)) (or (not (and (inv_main51 var19 var18 var17 var16 var15 var14 var13 var12 var11) (and (and (not (<= 0 (+ (+ var10 (- 1)) (- 1)))) (and (is-O_node (read var19 var13)) (and (and (and (and (and (and (and (and (and (= var9 var19) (= var8 var18)) (= var7 var17)) (= var6 var16)) (= var5 var15)) (= var4 var14)) (= var3 var13)) (= var2 var12)) (= var10 var11)) (= var1 (next (getnode (read var19 var13))))))) (= var0 (+ var10 (- 1)))))) (inv_main50 var9 var8 var7 var6 var5 var4 var1 var2 var0))))
(assert (forall ((var0 Int) (var1 Int) (var2 Int) (var3 Addr) (var4 Int) (var5 Int) (var6 Heap)) (or (not (and (inv_main43 var6 var5 var4 var3 var2) (and (and (and (not (<= 0 (+ var2 (- 1)))) (<= 0 (+ (+ var5 (* (- 1) var2)) (- 1)))) (= var1 (+ var2 var5))) (= var0 (+ var2 var5))))) (inv_main50 var6 var5 var4 var3 var2 var1 var3 var0 var2))))
(assert (forall ((var0 Heap) (var1 Addr) (var2 Int) (var3 Addr) (var4 Addr) (var5 Int) (var6 Int) (var7 Int) (var8 Int) (var9 Heap)) (or (not (and (inv_main28 var9 var8 var7 var6 var5 var4 var3 var2 var1) (and (and (is-O_node (read var9 var1)) (is-O_node (read var9 var1))) (= var0 (write var9 var1 (O_node (node nullAddr (data (getnode (read var9 var1)))))))))) (inv_main34 var0 var8 var7 var6 var5 var4 var3 var2 var1))))
(assert (forall ((var0 Int) (var1 Int) (var2 Addr) (var3 Int) (var4 Int) (var5 Heap)) (or (not (and (inv_main43 var5 var4 var3 var2 var1) (and (not (<= 0 (+ (+ var4 (* (- 1) var1)) (- 1)))) (= var0 0)))) (inv_main55 var5 var4 var3 var2 var0))))
(assert (forall ((var0 Int) (var1 Int) (var2 Int) (var3 Addr) (var4 Int) (var5 Int) (var6 Heap) (var7 Int) (var8 Int) (var9 Int) (var10 Addr) (var11 Int) (var12 Int) (var13 Int) (var14 Addr) (var15 Int) (var16 Int) (var17 Heap)) (or (not (and (inv_main64 var17 var16 var15 var14 var13 var12 var11 var10 var9) (and (and (and (= var8 var7) (is-O_node (read var17 var10))) (and (and (and (and (and (and (and (= var6 var17) (= var5 var16)) (= var4 var15)) (= var3 var14)) (= var2 var13)) (= var1 var12)) (= var8 var11)) (= var7 (data (getnode (read var17 var10)))))) (= var0 (+ var2 1))))) (inv_main55 var6 var5 var4 var3 var0))))
(assert (forall ((var0 Addr) (var1 Addr) (var2 Int) (var3 Int) (var4 Int) (var5 Int) (var6 Heap)) (or (not (and (inv_main21 var6 var5 var4 var3 var2 var1 var0) (not (<= 0 (+ (+ var3 (- 1)) (- 1)))))) (inv_main22 var6 var5 var4 var3 var2 var1 var0))))
(assert (forall ((var0 Int) (var1 Addr) (var2 Addr) (var3 Int) (var4 Int) (var5 Int) (var6 Int) (var7 node) (var8 Heap) (var9 Addr) (var10 Addr) (var11 Addr) (var12 Int) (var13 Int) (var14 Int) (var15 Int) (var16 Heap)) (or (not (and (inv_main21 var16 var15 var14 var13 var12 var11 var10) (and (and (not (= nullAddr var9)) (and (and (and (and (and (and (and (and (= var8 (newHeap (alloc var16 (O_node var7)))) (= var6 var15)) (= var5 var14)) (= var4 var13)) (= var3 var12)) (= var2 var11)) (= var1 var10)) (= var0 var12)) (= var9 (newAddr (alloc var16 (O_node var7)))))) (<= 0 (+ (+ var13 (- 1)) (- 1)))))) (inv_main28 var8 var6 var5 var4 var3 var2 var1 var0 var9))))
(assert (forall ((var0 Int) (var1 Addr) (var2 Int) (var3 Int) (var4 Heap)) (or (not (and (inv_main55 var4 var3 var2 var1 var0) (and (not (= nullAddr var1)) (not (<= 0 (+ (+ var3 (* (- 1) var0)) (- 1))))))) (inv_main72 var4 var3 var2 var1 var0 var1))))
(assert (forall ((var0 Addr) (var1 Int) (var2 Addr) (var3 Addr) (var4 Int) (var5 Int) (var6 Int) (var7 Int) (var8 Heap) (var9 Addr) (var10 Int) (var11 Addr) (var12 Addr) (var13 Int) (var14 Int) (var15 Int) (var16 Int) (var17 Heap)) (or (not (and (inv_main34 var17 var16 var15 var14 var13 var12 var11 var10 var9) (and (and (is-O_node (read var17 var9)) (is-O_node (read var17 var9))) (and (and (and (and (and (and (and (and (= var8 (write var17 var9 (O_node (node (next (getnode (read var17 var9))) var10)))) (= var7 var16)) (= var6 var15)) (= var5 var14)) (= var4 var13)) (= var3 var12)) (= var2 var11)) (= var1 var10)) (= var0 var9))))) (inv_main36 var8 var7 var6 var5 var4 var3 var2 var0))))
(assert (forall ((var0 Int) (var1 Int) (var2 Int) (var3 Int) (var4 Int) (var5 node) (var6 Heap) (var7 Addr) (var8 Int) (var9 Int) (var10 Heap)) (or (not (and (inv_main4 var10 var9 var8) (and (not (= nullAddr var7)) (and (and (and (and (and (and (= var6 (newHeap (alloc var10 (O_node var5)))) (= var4 var9)) (= var3 var8)) (= var2 var9)) (= var1 var8)) (= var0 var8)) (= var7 (newAddr (alloc var10 (O_node var5)))))))) (inv_main12 var6 var4 var3 var2 var1 var0 var7))))
(assert (forall ((var0 Int) (var1 Addr) (var2 Int) (var3 Addr) (var4 Int) (var5 Int) (var6 Addr) (var7 Int) (var8 Int) (var9 Heap) (var10 Int) (var11 Int) (var12 Int) (var13 Addr) (var14 Int) (var15 Int) (var16 Addr) (var17 Int) (var18 Int) (var19 Heap)) (or (not (and (inv_main51 var19 var18 var17 var16 var15 var14 var13 var12 var11) (and (and (<= 0 (+ (+ var10 (- 1)) (- 1))) (and (is-O_node (read var19 var13)) (and (and (and (and (and (and (and (and (and (= var9 var19) (= var8 var18)) (= var7 var17)) (= var6 var16)) (= var5 var15)) (= var4 var14)) (= var3 var13)) (= var2 var12)) (= var10 var11)) (= var1 (next (getnode (read var19 var13))))))) (= var0 (+ var10 (- 1)))))) (inv_main51 var9 var8 var7 var6 var5 var4 var1 var2 var0))))
(assert (forall ((var0 Int) (var1 Int) (var2 Int) (var3 Addr) (var4 Int) (var5 Int) (var6 Heap)) (or (not (and (inv_main43 var6 var5 var4 var3 var2) (and (and (and (<= 0 (+ var2 (- 1))) (<= 0 (+ (+ var5 (* (- 1) var2)) (- 1)))) (= var1 (+ var2 var5))) (= var0 (+ var2 var5))))) (inv_main51 var6 var5 var4 var3 var2 var1 var3 var0 var2))))
(assert (forall ((var0 Int) (var1 Addr) (var2 Int) (var3 Int) (var4 Heap) (var5 Addr) (var6 Addr) (var7 Addr) (var8 Int) (var9 Addr) (var10 Int) (var11 Int) (var12 Heap)) (or (not (and (inv_main72 var12 var11 var10 var9 var8 var7) (and (and (not (= var6 var5)) (is-O_node (read var12 var7))) (and (and (and (and (and (and (= var4 var12) (= var3 var11)) (= var2 var10)) (= var1 var9)) (= var0 var8)) (= var5 var7)) (= var6 (next (getnode (read var12 var7)))))))) (inv_main76 var4 var3 var2 var1 var0 var5 var6))))
(assert (forall ((var0 Addr) (var1 Int) (var2 Addr) (var3 Int) (var4 Int) (var5 Heap) (var6 Addr) (var7 Addr) (var8 Addr) (var9 Int) (var10 Addr) (var11 Int) (var12 Int) (var13 Heap) (var14 Addr) (var15 Addr) (var16 Addr) (var17 Addr) (var18 Int) (var19 Addr) (var20 Int) (var21 Int) (var22 Heap)) (or (not (and (inv_main76 var22 var21 var20 var19 var18 var17 var16) (and (not (= var15 var14)) (and (and (is-O_node (read var22 var16)) (and (and (and (and (and (and (and (= var13 var22) (= var12 var21)) (= var11 var20)) (= var10 var19)) (= var9 var18)) (= var8 var17)) (= var7 var16)) (= var6 (next (getnode (read var22 var16)))))) (and (and (and (and (and (and (and (= var5 (write var13 var7 defObj)) (= var4 var12)) (= var3 var11)) (= var2 var10)) (= var1 var9)) (= var14 var8)) (= var0 var7)) (= var15 var6)))))) (inv_main76 var5 var4 var3 var2 var1 var14 var15))))
(assert (forall ((var0 Int) (var1 Addr) (var2 Addr) (var3 Addr) (var4 Int) (var5 Int) (var6 Int) (var7 Int) (var8 Heap) (var9 Addr) (var10 Addr) (var11 Addr) (var12 Int) (var13 Int) (var14 Int) (var15 Int) (var16 Heap)) (or (not (and (inv_main36 var16 var15 var14 var13 var12 var11 var10 var9) (and (and (and (is-O_node (read var16 var9)) (is-O_node (read var16 var9))) (and (and (and (and (and (and (and (= var8 (write var16 var9 (O_node (node var11 (data (getnode (read var16 var9))))))) (= var7 var15)) (= var6 var14)) (= var5 var13)) (= var4 var12)) (= var3 var11)) (= var2 var10)) (= var1 var9))) (= var0 (+ var5 (- 1)))))) (inv_main21 var8 var7 var6 var0 var4 var1 var2))))
(assert (forall ((var0 Addr) (var1 Int) (var2 Int) (var3 Int) (var4 Int) (var5 Int) (var6 Heap) (var7 Addr) (var8 Int) (var9 Int) (var10 Int) (var11 Int) (var12 Int) (var13 Heap)) (or (not (and (inv_main18 var13 var12 var11 var10 var9 var8 var7) (and (and (is-O_node (read var13 var7)) (is-O_node (read var13 var7))) (and (and (and (and (and (and (= var6 (write var13 var7 (O_node (node (next (getnode (read var13 var7))) var8)))) (= var5 var12)) (= var4 var11)) (= var3 var10)) (= var2 var9)) (= var1 var8)) (= var0 var7))))) (inv_main21 var6 var5 var4 var3 var2 var0 var0))))
(assert (forall ((var0 Int) (var1 Addr) (var2 Int) (var3 Addr) (var4 Addr) (var5 Int) (var6 Int) (var7 Int) (var8 Int) (var9 Heap)) (or (not (inv_main31 var9 var8 var7 var6 var5 var4 var3 var2 var1 var0)) (inv_main31 var9 var8 var7 var6 var5 var4 var3 var2 var1 var0))))
(assert (forall ((var0 Int) (var1 Int) (var2 Addr) (var3 Addr) (var4 Int) (var5 Int) (var6 Int) (var7 Int) (var8 node) (var9 Heap) (var10 Addr) (var11 Addr) (var12 Addr) (var13 Int) (var14 Int) (var15 Int) (var16 Int) (var17 Heap)) (or (not (and (inv_main21 var17 var16 var15 var14 var13 var12 var11) (and (and (and (= nullAddr var10) (and (and (and (and (and (and (and (and (= var9 (newHeap (alloc var17 (O_node var8)))) (= var7 var16)) (= var6 var15)) (= var5 var14)) (= var4 var13)) (= var3 var12)) (= var2 var11)) (= var1 var13)) (= var10 (newAddr (alloc var17 (O_node var8)))))) (<= 0 (+ (+ var14 (- 1)) (- 1)))) (= var0 1)))) (inv_main31 var9 var7 var6 var5 var4 var3 var2 var1 var10 var0))))
(assert (forall ((var0 Int) (var1 Addr) (var2 Int) (var3 Int) (var4 Int) (var5 Int) (var6 Int) (var7 Heap)) (or (not (inv_main15 var7 var6 var5 var4 var3 var2 var1 var0)) (inv_main15 var7 var6 var5 var4 var3 var2 var1 var0))))
(assert (forall ((var0 Int) (var1 Int) (var2 Int) (var3 Int) (var4 Int) (var5 Int) (var6 node) (var7 Heap) (var8 Addr) (var9 Int) (var10 Int) (var11 Heap)) (or (not (and (inv_main4 var11 var10 var9) (and (and (= nullAddr var8) (and (and (and (and (and (and (= var7 (newHeap (alloc var11 (O_node var6)))) (= var5 var10)) (= var4 var9)) (= var3 var10)) (= var2 var9)) (= var1 var9)) (= var8 (newAddr (alloc var11 (O_node var6)))))) (= var0 1)))) (inv_main15 var7 var5 var4 var3 var2 var1 var8 var0))))
(assert (forall ((var0 Addr) (var1 Int) (var2 Int) (var3 Int) (var4 Int) (var5 Int) (var6 Heap)) (not (and (inv_main12 var6 var5 var4 var3 var2 var1 var0) (not (is-O_node (read var6 var0)))))))
(assert (forall ((var0 Addr) (var1 Int) (var2 Int) (var3 Int) (var4 Int) (var5 Int) (var6 Heap)) (not (and (inv_main12 var6 var5 var4 var3 var2 var1 var0) (and (is-O_node (read var6 var0)) (not (is-O_node (read var6 var0))))))))
(assert (forall ((var0 Addr) (var1 Int) (var2 Int) (var3 Int) (var4 Int) (var5 Int) (var6 Heap)) (not (and (inv_main18 var6 var5 var4 var3 var2 var1 var0) (not (is-O_node (read var6 var0)))))))
(assert (forall ((var0 Addr) (var1 Int) (var2 Int) (var3 Int) (var4 Int) (var5 Int) (var6 Heap)) (not (and (inv_main18 var6 var5 var4 var3 var2 var1 var0) (and (is-O_node (read var6 var0)) (not (is-O_node (read var6 var0))))))))
(assert (forall ((var0 Addr) (var1 Int) (var2 Addr) (var3 Addr) (var4 Int) (var5 Int) (var6 Int) (var7 Int) (var8 Heap)) (not (and (inv_main28 var8 var7 var6 var5 var4 var3 var2 var1 var0) (not (is-O_node (read var8 var0)))))))
(assert (forall ((var0 Addr) (var1 Int) (var2 Addr) (var3 Addr) (var4 Int) (var5 Int) (var6 Int) (var7 Int) (var8 Heap)) (not (and (inv_main28 var8 var7 var6 var5 var4 var3 var2 var1 var0) (and (is-O_node (read var8 var0)) (not (is-O_node (read var8 var0))))))))
(assert (forall ((var0 Addr) (var1 Int) (var2 Addr) (var3 Addr) (var4 Int) (var5 Int) (var6 Int) (var7 Int) (var8 Heap)) (not (and (inv_main34 var8 var7 var6 var5 var4 var3 var2 var1 var0) (not (is-O_node (read var8 var0)))))))
(assert (forall ((var0 Addr) (var1 Int) (var2 Addr) (var3 Addr) (var4 Int) (var5 Int) (var6 Int) (var7 Int) (var8 Heap)) (not (and (inv_main34 var8 var7 var6 var5 var4 var3 var2 var1 var0) (and (is-O_node (read var8 var0)) (not (is-O_node (read var8 var0))))))))
(assert (forall ((var0 Addr) (var1 Addr) (var2 Addr) (var3 Int) (var4 Int) (var5 Int) (var6 Int) (var7 Heap)) (not (and (inv_main36 var7 var6 var5 var4 var3 var2 var1 var0) (not (is-O_node (read var7 var0)))))))
(assert (forall ((var0 Addr) (var1 Addr) (var2 Addr) (var3 Int) (var4 Int) (var5 Int) (var6 Int) (var7 Heap)) (not (and (inv_main36 var7 var6 var5 var4 var3 var2 var1 var0) (and (is-O_node (read var7 var0)) (not (is-O_node (read var7 var0))))))))
(assert (forall ((var0 Addr) (var1 Addr) (var2 Int) (var3 Int) (var4 Int) (var5 Int) (var6 Heap)) (not (and (inv_main22 var6 var5 var4 var3 var2 var1 var0) (not (is-O_node (read var6 var0)))))))
(assert (forall ((var0 Addr) (var1 Addr) (var2 Int) (var3 Int) (var4 Int) (var5 Int) (var6 Heap)) (not (and (inv_main22 var6 var5 var4 var3 var2 var1 var0) (and (is-O_node (read var6 var0)) (not (is-O_node (read var6 var0))))))))
(assert (forall ((var0 Int) (var1 Int) (var2 Addr) (var3 Int) (var4 Int) (var5 Addr) (var6 Int) (var7 Int) (var8 Heap)) (not (and (inv_main51 var8 var7 var6 var5 var4 var3 var2 var1 var0) (not (is-O_node (read var8 var2)))))))
(assert (forall ((var0 Int) (var1 Int) (var2 Addr) (var3 Int) (var4 Int) (var5 Addr) (var6 Int) (var7 Int) (var8 Heap)) (not (and (inv_main50 var8 var7 var6 var5 var4 var3 var2 var1 var0) (not (is-O_node (read var8 var2)))))))
(assert (forall ((var0 Int) (var1 Int) (var2 Addr) (var3 Int) (var4 Int) (var5 Addr) (var6 Int) (var7 Int) (var8 Heap)) (not (and (inv_main50 var8 var7 var6 var5 var4 var3 var2 var1 var0) (and (is-O_node (read var8 var2)) (not (is-O_node (read var8 var2))))))))
(assert (forall ((var0 Int) (var1 Addr) (var2 Int) (var3 Int) (var4 Int) (var5 Addr) (var6 Int) (var7 Int) (var8 Heap)) (not (and (inv_main65 var8 var7 var6 var5 var4 var3 var2 var1 var0) (not (is-O_node (read var8 var1)))))))
(assert (forall ((var0 Int) (var1 Addr) (var2 Int) (var3 Int) (var4 Int) (var5 Addr) (var6 Int) (var7 Int) (var8 Heap)) (not (and (inv_main64 var8 var7 var6 var5 var4 var3 var2 var1 var0) (not (is-O_node (read var8 var1)))))))
(assert (forall ((var0 Addr) (var1 Int) (var2 Addr) (var3 Int) (var4 Int) (var5 Heap)) (not (and (inv_main72 var5 var4 var3 var2 var1 var0) (not (is-O_node (read var5 var0)))))))
(assert (forall ((var0 Addr) (var1 Addr) (var2 Int) (var3 Addr) (var4 Int) (var5 Int) (var6 Heap)) (not (and (inv_main76 var6 var5 var4 var3 var2 var1 var0) (not (is-O_node (read var6 var0)))))))
(assert (forall ((var0 Int) (var1 Addr) (var2 Int) (var3 Int) (var4 Heap)) (not (inv_main79 var4 var3 var2 var1 var0))))
(check-sat)
